
Gurobi 8.1.0 (mac64) logging started Mon May  1 11:50:29 2023


ERROR 10009: No Gurobi license found (user yac027, host knightlab.local, hostid 9fe21529, cores 4)


Gurobi 8.1.0 (mac64) logging started Wed May 10 09:37:49 2023


ERROR 10009: No Gurobi license found (user yac027, host knightlab.local, hostid 9fe21529, cores 4)

